data/cvrplib_xml100/instances/XML200_1215_01.vrp
NAME : XML200_1215_01
COMMENT : Generated as the XML100 dataset from the CVRPLIB
TYPE : CVRP
DIMENSION : 201
EDGE_WEIGHT_TYPE : EUC_2D
CAPACITY : 21
NODE_COORD_SECTION
1    821  782 
2    630  547 
3    117  601 
4    166  233 
5    246  532 
6    753  390 
7    908  570 
8    102  321 
9    541  331 
10   36   304 
11   931  530 
12   745  523 
13   64   261 
14   781  476 
15   239  497 
16   197  169 
17   43   267 
18   153  236 
19   172  517 
20   79   253 
21   119  495 
22   126  549 
23   113  601 
24   26   529 
25   71   171 
26   1    288 
27   22   650 
28   861  398 
29   153  329 
30   749  266 
31   161  139 
32   740  448 
33   82   355 
34   61   402 
35   188  663 
36   828  611 
37   646  436 
38   681  395 
39   878  436 
40   909  526 
41   888  454 
42   150  561 
43   40   192 
44   187  525 
45   739  690 
46   712  456 
47   205  541 
48   869  418 
49   174  523 
50   819  287 
51   84   247 
52   69   223 
53   880  453 
54   143  567 
55   157  486 
56   768  470 
57   117  513 
58   157  469 
59   62   348 
60   806  345 
61   167  447 
62   954  650 
63   717  489 
64   157  463 
65   57   137 
66   857  432 
67   733  435 
68   461  89  
69   725  453 
70   101  416 
71   714  378 
72   819  333 
73   123  293 
74   159  468 
75   39   395 
76   903  456 
77   57   297 
78   73   268 
79   55   313 
80   800  471 
81   44   192 
82   166  235 
83   754  475 
84   762  451 
85   267  384 
86   106  248 
87   93   194 
88   20   358 
89   106  570 
90   39   456 
91   63   384 
92   57   380 
93   188  543 
94   148  438 
95   800  468 
96   408  636 
97   771  458 
98   900  368 
99   173  337 
100  45   222 
101  128  521 
102  847  302 
103  17   379 
104  134  561 
105  43   211 
106  61   357 
107  275  542 
108  86   522 
109  36   549 
110  182  462 
111  73   266 
112  133  441 
113  220  431 
114  767  429 
115  943  488 
116  245  586 
117  432  335 
118  790  518 
119  824  352 
120  187  471 
121  365  236 
122  773  511 
123  147  504 
124  809  427 
125  297  644 
126  52   562 
127  105  307 
128  438  543 
129  734  472 
130  141  64  
131  726  469 
132  309  601 
133  60   255 
134  792  350 
135  699  404 
136  12   301 
137  759  438 
138  46   530 
139  74   390 
140  769  423 
141  920  565 
142  63   252 
143  56   275 
144  874  490 
145  768  564 
146  209  267 
147  196  430 
148  30   267 
149  187  554 
150  198  504 
151  763  446 
152  1    202 
153  244  434 
154  966  570 
155  18   406 
156  129  259 
157  260  742 
158  608  474 
159  16   350 
160  74   269 
161  18   282 
162  324  598 
163  49   396 
164  815  393 
165  154  295 
166  192  264 
167  779  460 
168  797  442 
169  53   536 
170  183  473 
171  834  391 
172  145  421 
173  836  490 
174  212  222 
175  802  458 
176  686  609 
177  124  571 
178  105  435 
179  802  368 
180  810  392 
181  115  393 
182  755  466 
183  69   234 
184  765  479 
185  102  501 
186  29   395 
187  56   332 
188  158  196 
189  946  446 
190  28   569 
191  783  495 
192  5    553 
193  728  488 
194  786  460 
195  135  410 
196  120  507 
197  42   335 
198  95   524 
199  226  631 
200  31   446 
201  199  407 
DEMAND_SECTION
1    0   
2    1   
3    1   
4    1   
5    1   
6    1   
7    1   
8    1   
9    1   
10   1   
11   1   
12   1   
13   1   
14   1   
15   1   
16   1   
17   1   
18   1   
19   1   
20   1   
21   1   
22   1   
23   1   
24   1   
25   1   
26   1   
27   1   
28   1   
29   1   
30   1   
31   1   
32   1   
33   1   
34   1   
35   1   
36   1   
37   1   
38   1   
39   1   
40   1   
41   1   
42   1   
43   1   
44   1   
45   1   
46   1   
47   1   
48   1   
49   1   
50   1   
51   1   
52   1   
53   1   
54   1   
55   1   
56   1   
57   1   
58   1   
59   1   
60   1   
61   1   
62   1   
63   1   
64   1   
65   1   
66   1   
67   1   
68   1   
69   1   
70   1   
71   1   
72   1   
73   1   
74   1   
75   1   
76   1   
77   1   
78   1   
79   1   
80   1   
81   1   
82   1   
83   1   
84   1   
85   1   
86   1   
87   1   
88   1   
89   1   
90   1   
91   1   
92   1   
93   1   
94   1   
95   1   
96   1   
97   1   
98   1   
99   1   
100  1   
101  1   
102  1   
103  1   
104  1   
105  1   
106  1   
107  1   
108  1   
109  1   
110  1   
111  1   
112  1   
113  1   
114  1   
115  1   
116  1   
117  1   
118  1   
119  1   
120  1   
121  1   
122  1   
123  1   
124  1   
125  1   
126  1   
127  1   
128  1   
129  1   
130  1   
131  1   
132  1   
133  1   
134  1   
135  1   
136  1   
137  1   
138  1   
139  1   
140  1   
141  1   
142  1   
143  1   
144  1   
145  1   
146  1   
147  1   
148  1   
149  1   
150  1   
151  1   
152  1   
153  1   
154  1   
155  1   
156  1   
157  1   
158  1   
159  1   
160  1   
161  1   
162  1   
163  1   
164  1   
165  1   
166  1   
167  1   
168  1   
169  1   
170  1   
171  1   
172  1   
173  1   
174  1   
175  1   
176  1   
177  1   
178  1   
179  1   
180  1   
181  1   
182  1   
183  1   
184  1   
185  1   
186  1   
187  1   
188  1   
189  1   
190  1   
191  1   
192  1   
193  1   
194  1   
195  1   
196  1   
197  1   
198  1   
199  1   
200  1   
201  1   
DEPOT_SECTION
1
-1
EOF
