data/cvrplib_xml100/solutions/XML200_1215_01.sol
Route #1: 124 198 2 22 176 88 125 108 137 168 107 197 184 20 195 56 100 21 103 53 41
Route #2: 95 161 131 115 46 148 92 43 48 18 122 54 57 73 63 109 119 169 149 4 106
Route #3: 127 152 112 146 171 194 180 138 90 91 74 185 154 199 89 23 191 189 26 34 156
Route #4: 98 28 72 126 7 32 105 58 186 196 158 87 102 162 33 69 177 111 93 60 14
Route #5: 200 78 76 9 135 25 160 147 16 142 77 159 110 12 132 141 19 50 85 155 164
Route #6: 173 15 30 129 64 24 80 42 151 104 99 182 51 86 187 17 3 81 165 145 84
Route #7: 172 123 170 163 179 178 133 59 118 71 101 49 29 67 120 116 8 36 157 1 175
Route #8: 44 62 192 128 130 45 68 31 66 134 37 70 5 139 113 136 150 83 181 82 11
Route #9: 35 117 190 13 79 94 174 167 193 166 96 55 183 121 144
Route #10: 61 153 10 114 188 97 27 47 65 38 52 40 75 143 39 140 6
Cost 16457
